# Formamide -
1.000000
      3.60400000        0.00000000        0.00000000
      0.00000000        9.04100000        0.00000000
     -1.27455527        0.00000000        6.87688482
 O  N  C  H
     4       4       4      12
Selective dynamics
Cartesian
      1.38351276        8.41988330        1.70959357
     -0.21879039        3.89938330        1.72884884
      0.94593197        0.62111670        5.16729126
      2.54823513        5.14161670        5.14803598
      0.92808632        1.41582060        0.81834929
      0.23663604        5.93632060        2.62009312
      1.40135841        7.62517940        6.05853553
      2.09280869        3.10467940        4.25679171
      0.88138794        0.51081650        1.77423628
      0.28333443        5.03131650        1.66420613
      1.44805679        8.53018350        5.10264854
      2.04611031        4.00968350        5.21267870
      0.58200626        2.20600400        0.96276388
      1.31502067        1.22053500        0.04126131
      0.39038611        0.80464900        2.59946246
      0.58271610        6.72650400        2.47567854
     -0.15029830        5.74103500        3.39718110
      0.77433626        5.32514900        0.83897995
      1.74743847        6.83499600        5.91412095
      1.01442407        7.82046500        6.83562351
      1.93905862        8.23635100        4.27742236
      1.74672863        2.31449600        4.40120629
      2.47974304        3.29996500        3.47970372
      1.55510848        3.71585100        6.03790488
